[ma. 03. april 15:08:26 +0200 2023]  ./input/alternate_g_np/50-6-3.gcc
Set parameter Username
Academic license - for non-commercial use only - expires 2024-03-28
Set parameter TimeLimit to value 1800
Set parameter PreCrush to value 1
Set parameter LazyConstraints to value 1
Gurobi Optimizer version 10.0.1 build v10.0.1rc0 (linux64)

CPU model: AMD Ryzen 9 5950X 16-Core Processor, instruction set [SSE2|AVX|AVX2]
Thread count: 16 physical cores, 32 logical processors, using up to 32 threads

Optimize a model with 54 rows, 250 columns and 650 nonzeros
Model fingerprint: 0x8c4dc412
Variable types: 0 continuous, 250 integer (250 binary)
Coefficient statistics:
  Matrix range     [1e+00, 1e+00]
  Objective range  [1e+00, 1e+02]
  Bounds range     [1e+00, 1e+00]
  RHS range        [1e+00, 1e+00]
Presolve time: 0.00s
Presolved: 54 rows, 250 columns, 650 nonzeros
Variable types: 0 continuous, 250 integer (250 binary)

Root relaxation: objective 2.421000e+03, 4 iterations, 0.00 seconds (0.00 work units)

    Nodes    |    Current Node    |     Objective Bounds      |     Work
 Expl Unexpl |  Obj  Depth IntInf | Incumbent    BestBd   Gap | It/Node Time

     0     0 2421.00000    0    4          - 2421.00000      -     -    0s
     0     0 2421.00000    0    4          - 2421.00000      -     -    0s
     0     0 2421.00000    0    -          - 2421.00000      -     -    0s
     0     0 2421.00000    0    7          - 2421.00000      -     -    0s
     0     0 2421.00000    0    -          - 2421.00000      -     -    0s
     0     0 2421.00000    0   13          - 2421.00000      -     -    0s
     0     0 2421.00000    0    7          - 2421.00000      -     -    0s
     0     2 2421.00000    0    4          - 2421.00000      -     -    0s
 18687 10959 2421.00000   26   78          - 2421.00000      -  14.9    5s
*23553 10634              24    2383.0000000 2421.00000  1.59%  15.5    6s
H24460  2703                    2420.0000000 2421.00000  0.04%  15.8    7s
H25185  2274                    2421.0000000 2421.00000  0.00%  17.0    9s

Cutting planes:
  User: 372
  Lazy constraints: 60

Explored 25204 nodes (431353 simplex iterations) in 9.09 seconds (5.87 work units)
Thread count was 32 (of 32 available processors)

Solution count 3: 2421 2420 2383 

Optimal solution found (tolerance 1.00e-04)
Best objective 2.421000000000e+03, best bound 2.421000000000e+03, gap 0.0000%

User-callback calls 51887, time in user-callback 3.50 sec
Minimal separator inequalities added: 112719
Indegree inequalities added: 105433
Passed solution check
[ma. 03. april 15:08:36 +0200 2023]  done

